DATASET = "thpack3";
INSTANCE = "067";

WIDTH = 233;
HEIGHT = 220;
LENGTH = 587;

NO_OF_SHAPES = 8;
size = [|
  119,41,38 |
  90,44,35 |
  67,55,27 |
  71,47,36 |
  90,55,51 |
  87,68,40 |
  87,53,36 |
  113,47,34 |
|];

verticality = [|
  0,1,1 |
  0,1,1 |
  0,0,1 |
  1,1,1 |
  1,1,1 |
  0,1,1 |
  0,1,1 |
  0,1,1 |
|];

box_count = [
  20,
  13,
  17,
  21,
  27,
  19,
  26,
  26,
];
